false false false
presolving:
presolving (0 rounds: 0 fast, 0 medium, 0 exhaustive):
 0 deleted vars, 0 deleted constraints, 0 added constraints, 0 tightened bounds, 0 added holes, 0 changed sides, 0 changed coefficients
 0 implications, 0 cliques
presolved problem has 60 variables (60 bin, 0 int, 0 impl, 0 cont) and 51 constraints
     51 constraints of type <linear>
transformed objective value is always integral (scale: 1)
Presolving Time: 0.00

 time | node  | left  |LP iter|LP it/n|mem/heur|mdpt |vars |cons |rows |cuts |sepa|confs|strbr|  dualbound   | primalbound  |  gap   | compl. 
p 0.0s|     1 |     0 |     0 |     - |shiftand|   0 |  60 |  51 |  51 |   0 |  0 |   0 |   0 |      --      | 9.000000e+00 |    Inf | unknown
 time | node  | left  |LP iter|LP it/n|mem/heur|mdpt |vars |cons |rows |cuts |sepa|confs|strbr|  dualbound   | primalbound  |  gap   | compl. 
  1.1s|     1 |     0 |    37 |     - |  3126k |   0 | 909 |  51 |  51 |   0 |  0 |   0 |   0 |-1.910000e+02 | 9.000000e+00 |    Inf | unknown
slurmstepd-htc-cmp465: error: *** JOB 16657478 ON htc-cmp465 CANCELLED AT 2024-01-28T06:03:35 DUE TO TIME LIMIT ***
